NAME 
OBJSENSE MAX
ROWS
 N  OBJ
 L  packing[0]
 L  packing[1]
 L  packing[2]
 L  packing[3]
 L  packing[4]
 L  packing[5]
 L  packing[6]
 L  packing[7]
 L  packing[8]
 L  packing[9]
 L  packing[10]
 L  packing[11]
 L  packing[12]
 L  packing[13]
 L  packing[14]
 L  packing[15]
 L  packing[16]
 L  packing[17]
 L  packing[18]
 L  packing[19]
 L  packing[20]
 L  packing[21]
 L  packing[22]
 L  packing[23]
 L  packing[24]
 L  packing[25]
 L  packing[26]
 L  packing[27]
 L  packing[28]
 L  packing[29]
 L  packing[30]
 L  packing[31]
 L  packing[32]
 L  packing[33]
 L  packing[34]
 L  packing[35]
 L  packing[36]
 L  packing[37]
 L  packing[38]
 L  packing[39]
 L  packing[40]
 L  packing[41]
 L  packing[42]
 L  packing[43]
 L  packing[44]
 L  packing[45]
 L  packing[46]
 L  packing[47]
 L  packing[48]
 L  packing[49]
COLUMNS
    MARKER    'MARKER'                 'INTORG'
    x[1]      OBJ       12
    x[1]      packing[0]  74
    x[1]      packing[1]  174
    x[1]      packing[3]  80
    x[1]      packing[4]  57
    x[1]      packing[5]  96
    x[1]      packing[8]  156
    x[1]      packing[9]  77
    x[1]      packing[10]  176
    x[1]      packing[11]  97
    x[1]      packing[12]  5
    x[1]      packing[13]  108
    x[1]      packing[15]  7
    x[1]      packing[16]  168
    x[1]      packing[18]  27
    x[1]      packing[19]  86
    x[1]      packing[20]  105
    x[1]      packing[21]  162
    x[1]      packing[22]  161
    x[1]      packing[23]  58
    x[1]      packing[24]  192
    x[1]      packing[25]  194
    x[1]      packing[26]  72
    x[1]      packing[27]  14
    x[1]      packing[28]  159
    x[1]      packing[29]  108
    x[1]      packing[30]  179
    x[1]      packing[31]  194
    x[1]      packing[32]  158
    x[1]      packing[33]  104
    x[1]      packing[34]  18
    x[1]      packing[36]  137
    x[1]      packing[37]  90
    x[1]      packing[38]  21
    x[1]      packing[39]  186
    x[1]      packing[43]  92
    x[1]      packing[44]  151
    x[1]      packing[46]  74
    x[1]      packing[47]  95
    x[1]      packing[49]  195
    x[2]      OBJ       123
    x[2]      packing[1]  1
    x[2]      packing[3]  75
    x[2]      packing[4]  150
    x[2]      packing[5]  13
    x[2]      packing[7]  58
    x[2]      packing[8]  172
    x[2]      packing[9]  11
    x[2]      packing[10]  195
    x[2]      packing[12]  110
    x[2]      packing[13]  114
    x[2]      packing[14]  19
    x[2]      packing[15]  166
    x[2]      packing[17]  121
    x[2]      packing[18]  194
    x[2]      packing[19]  137
    x[2]      packing[20]  180
    x[2]      packing[21]  189
    x[2]      packing[22]  47
    x[2]      packing[23]  74
    x[2]      packing[24]  33
    x[2]      packing[25]  25
    x[2]      packing[26]  99
    x[2]      packing[27]  192
    x[2]      packing[28]  82
    x[2]      packing[29]  39
    x[2]      packing[30]  137
    x[2]      packing[32]  49
    x[2]      packing[34]  187
    x[2]      packing[35]  26
    x[2]      packing[36]  177
    x[2]      packing[37]  174
    x[2]      packing[38]  160
    x[2]      packing[39]  167
    x[2]      packing[40]  82
    x[2]      packing[41]  86
    x[2]      packing[44]  93
    x[2]      packing[45]  151
    x[2]      packing[46]  149
    x[2]      packing[47]  175
    x[2]      packing[49]  93
    x[3]      OBJ       39
    x[3]      packing[0]  27
    x[3]      packing[2]  170
    x[3]      packing[3]  127
    x[3]      packing[4]  160
    x[3]      packing[5]  137
    x[3]      packing[6]  142
    x[3]      packing[7]  55
    x[3]      packing[9]  10
    x[3]      packing[11]  49
    x[3]      packing[12]  163
    x[3]      packing[14]  180
    x[3]      packing[15]  107
    x[3]      packing[17]  115
    x[3]      packing[18]  60
    x[3]      packing[19]  61
    x[3]      packing[21]  149
    x[3]      packing[22]  120
    x[3]      packing[23]  151
    x[3]      packing[24]  196
    x[3]      packing[25]  174
    x[3]      packing[27]  142
    x[3]      packing[28]  14
    x[3]      packing[30]  160
    x[3]      packing[31]  16
    x[3]      packing[33]  192
    x[3]      packing[34]  179
    x[3]      packing[35]  145
    x[3]      packing[37]  128
    x[3]      packing[39]  35
    x[3]      packing[40]  24
    x[3]      packing[41]  156
    x[3]      packing[42]  190
    x[3]      packing[43]  115
    x[3]      packing[46]  152
    x[3]      packing[47]  63
    x[3]      packing[48]  143
    x[4]      OBJ       3
    x[4]      packing[0]  183
    x[4]      packing[1]  94
    x[4]      packing[2]  171
    x[4]      packing[5]  191
    x[4]      packing[6]  193
    x[4]      packing[8]  177
    x[4]      packing[9]  65
    x[4]      packing[10]  90
    x[4]      packing[11]  12
    x[4]      packing[13]  130
    x[4]      packing[14]  98
    x[4]      packing[15]  92
    x[4]      packing[16]  28
    x[4]      packing[17]  71
    x[4]      packing[20]  130
    x[4]      packing[21]  19
    x[4]      packing[22]  119
    x[4]      packing[23]  104
    x[4]      packing[24]  29
    x[4]      packing[25]  29
    x[4]      packing[26]  129
    x[4]      packing[27]  22
    x[4]      packing[28]  85
    x[4]      packing[30]  98
    x[4]      packing[32]  187
    x[4]      packing[33]  185
    x[4]      packing[35]  35
    x[4]      packing[36]  92
    x[4]      packing[37]  149
    x[4]      packing[39]  53
    x[4]      packing[40]  18
    x[4]      packing[41]  156
    x[4]      packing[42]  180
    x[4]      packing[43]  30
    x[4]      packing[44]  91
    x[4]      packing[46]  102
    x[4]      packing[47]  153
    x[4]      packing[49]  187
    x[5]      OBJ       80
    x[5]      packing[0]  187
    x[5]      packing[1]  197
    x[5]      packing[2]  40
    x[5]      packing[3]  26
    x[5]      packing[4]  103
    x[5]      packing[5]  108
    x[5]      packing[7]  2
    x[5]      packing[12]  96
    x[5]      packing[13]  151
    x[5]      packing[14]  174
    x[5]      packing[15]  30
    x[5]      packing[16]  199
    x[5]      packing[17]  21
    x[5]      packing[20]  170
    x[5]      packing[21]  176
    x[5]      packing[22]  64
    x[5]      packing[24]  102
    x[5]      packing[25]  111
    x[5]      packing[27]  88
    x[5]      packing[29]  36
    x[5]      packing[31]  39
    x[5]      packing[32]  125
    x[5]      packing[33]  1
    x[5]      packing[34]  176
    x[5]      packing[35]  170
    x[5]      packing[38]  161
    x[5]      packing[39]  21
    x[5]      packing[40]  36
    x[5]      packing[41]  1
    x[5]      packing[42]  63
    x[5]      packing[43]  137
    x[5]      packing[44]  137
    x[5]      packing[45]  34
    x[5]      packing[46]  93
    x[5]      packing[48]  159
    x[5]      packing[49]  97
    x[6]      OBJ       177
    x[6]      packing[2]  109
    x[6]      packing[3]  66
    x[6]      packing[4]  137
    x[6]      packing[5]  169
    x[6]      packing[6]  25
    x[6]      packing[7]  125
    x[6]      packing[8]  180
    x[6]      packing[9]  198
    x[6]      packing[10]  168
    x[6]      packing[11]  96
    x[6]      packing[12]  131
    x[6]      packing[13]  198
    x[6]      packing[15]  135
    x[6]      packing[17]  15
    x[6]      packing[18]  114
    x[6]      packing[19]  110
    x[6]      packing[20]  14
    x[6]      packing[21]  72
    x[6]      packing[23]  146
    x[6]      packing[25]  74
    x[6]      packing[27]  142
    x[6]      packing[28]  91
    x[6]      packing[31]  34
    x[6]      packing[32]  4
    x[6]      packing[33]  155
    x[6]      packing[34]  51
    x[6]      packing[35]  52
    x[6]      packing[36]  85
    x[6]      packing[37]  1
    x[6]      packing[38]  92
    x[6]      packing[40]  69
    x[6]      packing[42]  124
    x[6]      packing[43]  163
    x[6]      packing[44]  179
    x[6]      packing[46]  152
    x[6]      packing[48]  138
    x[7]      OBJ       92
    x[7]      packing[1]  82
    x[7]      packing[3]  48
    x[7]      packing[5]  146
    x[7]      packing[6]  66
    x[7]      packing[7]  65
    x[7]      packing[8]  39
    x[7]      packing[10]  59
    x[7]      packing[11]  45
    x[7]      packing[12]  96
    x[7]      packing[14]  149
    x[7]      packing[16]  149
    x[7]      packing[17]  171
    x[7]      packing[18]  55
    x[7]      packing[19]  142
    x[7]      packing[20]  126
    x[7]      packing[22]  22
    x[7]      packing[24]  39
    x[7]      packing[26]  99
    x[7]      packing[28]  10
    x[7]      packing[29]  24
    x[7]      packing[30]  25
    x[7]      packing[31]  181
    x[7]      packing[33]  190
    x[7]      packing[36]  159
    x[7]      packing[37]  58
    x[7]      packing[38]  184
    x[7]      packing[39]  7
    x[7]      packing[40]  43
    x[7]      packing[41]  144
    x[7]      packing[42]  147
    x[7]      packing[43]  98
    x[7]      packing[44]  3
    x[7]      packing[45]  157
    x[7]      packing[46]  83
    x[7]      packing[48]  147
    x[8]      OBJ       60
    x[8]      packing[1]  102
    x[8]      packing[3]  159
    x[8]      packing[4]  49
    x[8]      packing[5]  85
    x[8]      packing[6]  116
    x[8]      packing[7]  27
    x[8]      packing[8]  139
    x[8]      packing[11]  179
    x[8]      packing[12]  45
    x[8]      packing[13]  154
    x[8]      packing[16]  34
    x[8]      packing[17]  30
    x[8]      packing[20]  75
    x[8]      packing[21]  159
    x[8]      packing[23]  108
    x[8]      packing[24]  171
    x[8]      packing[26]  61
    x[8]      packing[27]  123
    x[8]      packing[28]  72
    x[8]      packing[29]  124
    x[8]      packing[32]  193
    x[8]      packing[33]  159
    x[8]      packing[34]  25
    x[8]      packing[35]  62
    x[8]      packing[36]  136
    x[8]      packing[38]  30
    x[8]      packing[39]  82
    x[8]      packing[40]  105
    x[8]      packing[41]  175
    x[8]      packing[42]  3
    x[8]      packing[43]  157
    x[8]      packing[44]  4
    x[8]      packing[45]  86
    x[8]      packing[46]  5
    x[8]      packing[47]  5
    x[8]      packing[48]  166
    x[8]      packing[49]  111
    x[9]      OBJ       110
    x[9]      packing[0]  50
    x[9]      packing[1]  196
    x[9]      packing[2]  67
    x[9]      packing[3]  183
    x[9]      packing[4]  120
    x[9]      packing[5]  98
    x[9]      packing[6]  131
    x[9]      packing[7]  122
    x[9]      packing[8]  144
    x[9]      packing[9]  48
    x[9]      packing[11]  176
    x[9]      packing[12]  97
    x[9]      packing[13]  178
    x[9]      packing[14]  140
    x[9]      packing[15]  145
    x[9]      packing[16]  144
    x[9]      packing[17]  42
    x[9]      packing[18]  157
    x[9]      packing[20]  150
    x[9]      packing[21]  63
    x[9]      packing[22]  142
    x[9]      packing[24]  145
    x[9]      packing[26]  125
    x[9]      packing[27]  32
    x[9]      packing[30]  143
    x[9]      packing[31]  167
    x[9]      packing[32]  23
    x[9]      packing[34]  81
    x[9]      packing[35]  48
    x[9]      packing[37]  94
    x[9]      packing[38]  177
    x[9]      packing[40]  50
    x[9]      packing[42]  133
    x[9]      packing[43]  29
    x[9]      packing[44]  168
    x[9]      packing[45]  167
    x[9]      packing[46]  61
    x[9]      packing[47]  51
    x[9]      packing[48]  179
    x[9]      packing[49]  102
    x[10]     OBJ       51
    x[10]     packing[0]  143
    x[10]     packing[3]  143
    x[10]     packing[5]  21
    x[10]     packing[6]  17
    x[10]     packing[8]  31
    x[10]     packing[9]  163
    x[10]     packing[10]  184
    x[10]     packing[11]  166
    x[10]     packing[12]  175
    x[10]     packing[13]  20
    x[10]     packing[14]  83
    x[10]     packing[16]  196
    x[10]     packing[17]  107
    x[10]     packing[18]  30
    x[10]     packing[19]  59
    x[10]     packing[20]  94
    x[10]     packing[21]  30
    x[10]     packing[22]  144
    x[10]     packing[23]  37
    x[10]     packing[24]  179
    x[10]     packing[26]  188
    x[10]     packing[27]  147
    x[10]     packing[28]  90
    x[10]     packing[30]  127
    x[10]     packing[31]  41
    x[10]     packing[34]  4
    x[10]     packing[35]  97
    x[10]     packing[36]  133
    x[10]     packing[37]  155
    x[10]     packing[38]  109
    x[10]     packing[39]  159
    x[10]     packing[40]  142
    x[10]     packing[41]  142
    x[10]     packing[42]  118
    x[10]     packing[43]  182
    x[10]     packing[45]  70
    x[10]     packing[46]  153
    x[10]     packing[47]  16
    x[10]     packing[48]  131
    x[10]     packing[49]  156
    x[11]     OBJ       144
    x[11]     packing[0]  147
    x[11]     packing[1]  64
    x[11]     packing[2]  49
    x[11]     packing[3]  156
    x[11]     packing[4]  175
    x[11]     packing[5]  160
    x[11]     packing[6]  184
    x[11]     packing[7]  27
    x[11]     packing[8]  50
    x[11]     packing[9]  13
    x[11]     packing[11]  36
    x[11]     packing[12]  5
    x[11]     packing[13]  134
    x[11]     packing[14]  78
    x[11]     packing[15]  50
    x[11]     packing[18]  142
    x[11]     packing[20]  29
    x[11]     packing[21]  174
    x[11]     packing[22]  51
    x[11]     packing[24]  31
    x[11]     packing[25]  55
    x[11]     packing[26]  113
    x[11]     packing[28]  135
    x[11]     packing[29]  150
    x[11]     packing[30]  93
    x[11]     packing[34]  95
    x[11]     packing[36]  29
    x[11]     packing[37]  176
    x[11]     packing[38]  134
    x[11]     packing[39]  49
    x[11]     packing[40]  2
    x[11]     packing[41]  117
    x[11]     packing[42]  19
    x[11]     packing[43]  54
    x[11]     packing[44]  69
    x[11]     packing[45]  74
    x[11]     packing[46]  138
    x[11]     packing[48]  87
    x[11]     packing[49]  170
    x[12]     OBJ       166
    x[12]     packing[0]  162
    x[12]     packing[1]  62
    x[12]     packing[2]  77
    x[12]     packing[3]  10
    x[12]     packing[4]  115
    x[12]     packing[6]  75
    x[12]     packing[7]  77
    x[12]     packing[9]  120
    x[12]     packing[10]  67
    x[12]     packing[11]  140
    x[12]     packing[14]  9
    x[12]     packing[16]  181
    x[12]     packing[17]  157
    x[12]     packing[19]  198
    x[12]     packing[20]  45
    x[12]     packing[21]  26
    x[12]     packing[22]  92
    x[12]     packing[23]  28
    x[12]     packing[24]  195
    x[12]     packing[25]  109
    x[12]     packing[26]  81
    x[12]     packing[28]  47
    x[12]     packing[29]  41
    x[12]     packing[31]  169
    x[12]     packing[32]  158
    x[12]     packing[33]  176
    x[12]     packing[34]  157
    x[12]     packing[35]  155
    x[12]     packing[36]  55
    x[12]     packing[37]  30
    x[12]     packing[38]  46
    x[12]     packing[42]  180
    x[12]     packing[44]  88
    x[12]     packing[45]  72
    x[12]     packing[48]  93
    x[12]     packing[49]  179
    x[13]     OBJ       28
    x[13]     packing[0]  180
    x[13]     packing[1]  13
    x[13]     packing[2]  6
    x[13]     packing[3]  174
    x[13]     packing[4]  36
    x[13]     packing[5]  133
    x[13]     packing[6]  15
    x[13]     packing[7]  31
    x[13]     packing[8]  129
    x[13]     packing[9]  180
    x[13]     packing[10]  174
    x[13]     packing[12]  81
    x[13]     packing[13]  192
    x[13]     packing[15]  118
    x[13]     packing[17]  135
    x[13]     packing[18]  34
    x[13]     packing[19]  28
    x[13]     packing[20]  112
    x[13]     packing[21]  137
    x[13]     packing[22]  27
    x[13]     packing[23]  97
    x[13]     packing[24]  87
    x[13]     packing[25]  18
    x[13]     packing[26]  178
    x[13]     packing[29]  128
    x[13]     packing[31]  158
    x[13]     packing[32]  126
    x[13]     packing[35]  82
    x[13]     packing[36]  47
    x[13]     packing[37]  144
    x[13]     packing[39]  46
    x[13]     packing[40]  193
    x[13]     packing[41]  45
    x[13]     packing[45]  197
    x[13]     packing[47]  151
    x[13]     packing[48]  122
    x[13]     packing[49]  17
    x[14]     OBJ       157
    x[14]     packing[0]  79
    x[14]     packing[1]  44
    x[14]     packing[2]  30
    x[14]     packing[3]  136
    x[14]     packing[4]  93
    x[14]     packing[5]  141
    x[14]     packing[9]  36
    x[14]     packing[10]  148
    x[14]     packing[11]  175
    x[14]     packing[13]  116
    x[14]     packing[14]  168
    x[14]     packing[15]  19
    x[14]     packing[16]  51
    x[14]     packing[17]  79
    x[14]     packing[18]  130
    x[14]     packing[19]  163
    x[14]     packing[21]  37
    x[14]     packing[22]  98
    x[14]     packing[23]  34
    x[14]     packing[24]  51
    x[14]     packing[26]  8
    x[14]     packing[30]  53
    x[14]     packing[31]  161
    x[14]     packing[32]  30
    x[14]     packing[34]  45
    x[14]     packing[35]  73
    x[14]     packing[36]  98
    x[14]     packing[38]  20
    x[14]     packing[39]  113
    x[14]     packing[40]  100
    x[14]     packing[41]  36
    x[14]     packing[42]  113
    x[14]     packing[44]  131
    x[14]     packing[45]  185
    x[14]     packing[46]  81
    x[14]     packing[47]  71
    x[14]     packing[48]  27
    x[14]     packing[49]  93
    x[15]     OBJ       32
    x[15]     packing[0]  89
    x[15]     packing[2]  46
    x[15]     packing[3]  65
    x[15]     packing[4]  46
    x[15]     packing[5]  186
    x[15]     packing[6]  106
    x[15]     packing[8]  134
    x[15]     packing[9]  123
    x[15]     packing[11]  40
    x[15]     packing[14]  78
    x[15]     packing[15]  193
    x[15]     packing[16]  150
    x[15]     packing[17]  124
    x[15]     packing[18]  34
    x[15]     packing[21]  73
    x[15]     packing[23]  140
    x[15]     packing[24]  40
    x[15]     packing[25]  170
    x[15]     packing[26]  167
    x[15]     packing[27]  24
    x[15]     packing[28]  15
    x[15]     packing[30]  77
    x[15]     packing[31]  65
    x[15]     packing[32]  57
    x[15]     packing[33]  113
    x[15]     packing[34]  37
    x[15]     packing[35]  25
    x[15]     packing[36]  109
    x[15]     packing[38]  106
    x[15]     packing[39]  107
    x[15]     packing[40]  14
    x[15]     packing[41]  145
    x[15]     packing[43]  148
    x[15]     packing[44]  79
    x[15]     packing[47]  37
    x[16]     OBJ       77
    x[16]     packing[0]  142
    x[16]     packing[1]  14
    x[16]     packing[2]  94
    x[16]     packing[3]  109
    x[16]     packing[5]  36
    x[16]     packing[6]  79
    x[16]     packing[8]  27
    x[16]     packing[9]  35
    x[16]     packing[11]  137
    x[16]     packing[13]  168
    x[16]     packing[14]  185
    x[16]     packing[15]  101
    x[16]     packing[17]  123
    x[16]     packing[18]  132
    x[16]     packing[19]  51
    x[16]     packing[20]  63
    x[16]     packing[22]  5
    x[16]     packing[24]  193
    x[16]     packing[25]  132
    x[16]     packing[26]  153
    x[16]     packing[27]  164
    x[16]     packing[28]  98
    x[16]     packing[29]  66
    x[16]     packing[30]  8
    x[16]     packing[31]  119
    x[16]     packing[32]  181
    x[16]     packing[35]  147
    x[16]     packing[36]  155
    x[16]     packing[37]  108
    x[16]     packing[38]  25
    x[16]     packing[39]  89
    x[16]     packing[41]  140
    x[16]     packing[42]  77
    x[16]     packing[44]  126
    x[16]     packing[45]  6
    x[16]     packing[46]  105
    x[16]     packing[48]  169
    x[16]     packing[49]  137
    x[17]     OBJ       168
    x[17]     packing[0]  90
    x[17]     packing[3]  180
    x[17]     packing[5]  139
    x[17]     packing[6]  95
    x[17]     packing[7]  129
    x[17]     packing[9]  144
    x[17]     packing[10]  39
    x[17]     packing[11]  45
    x[17]     packing[12]  45
    x[17]     packing[13]  5
    x[17]     packing[14]  109
    x[17]     packing[15]  161
    x[17]     packing[16]  76
    x[17]     packing[18]  68
    x[17]     packing[19]  143
    x[17]     packing[20]  19
    x[17]     packing[21]  176
    x[17]     packing[22]  107
    x[17]     packing[23]  128
    x[17]     packing[24]  88
    x[17]     packing[26]  29
    x[17]     packing[28]  41
    x[17]     packing[29]  55
    x[17]     packing[30]  91
    x[17]     packing[31]  64
    x[17]     packing[32]  51
    x[17]     packing[33]  16
    x[17]     packing[34]  60
    x[17]     packing[36]  7
    x[17]     packing[37]  50
    x[17]     packing[38]  185
    x[17]     packing[39]  184
    x[17]     packing[40]  132
    x[17]     packing[43]  173
    x[17]     packing[44]  55
    x[17]     packing[45]  151
    x[17]     packing[46]  42
    x[17]     packing[47]  103
    x[17]     packing[48]  60
    x[17]     packing[49]  177
    x[18]     OBJ       137
    x[18]     packing[1]  99
    x[18]     packing[2]  197
    x[18]     packing[3]  67
    x[18]     packing[5]  42
    x[18]     packing[6]  195
    x[18]     packing[7]  173
    x[18]     packing[8]  21
    x[18]     packing[10]  38
    x[18]     packing[11]  107
    x[18]     packing[14]  82
    x[18]     packing[15]  145
    x[18]     packing[17]  119
    x[18]     packing[18]  112
    x[18]     packing[20]  109
    x[18]     packing[21]  187
    x[18]     packing[22]  177
    x[18]     packing[23]  74
    x[18]     packing[24]  178
    x[18]     packing[25]  144
    x[18]     packing[29]  198
    x[18]     packing[30]  71
    x[18]     packing[34]  190
    x[18]     packing[35]  50
    x[18]     packing[37]  116
    x[18]     packing[38]  55
    x[18]     packing[41]  13
    x[18]     packing[42]  95
    x[18]     packing[43]  120
    x[18]     packing[45]  13
    x[18]     packing[46]  91
    x[18]     packing[47]  89
    x[18]     packing[48]  178
    x[18]     packing[49]  196
    x[19]     OBJ       13
    x[19]     packing[0]  57
    x[19]     packing[4]  3
    x[19]     packing[5]  98
    x[19]     packing[6]  139
    x[19]     packing[7]  60
    x[19]     packing[8]  148
    x[19]     packing[10]  144
    x[19]     packing[11]  147
    x[19]     packing[12]  181
    x[19]     packing[13]  78
    x[19]     packing[14]  79
    x[19]     packing[15]  82
    x[19]     packing[16]  42
    x[19]     packing[17]  140
    x[19]     packing[18]  178
    x[19]     packing[19]  38
    x[19]     packing[20]  34
    x[19]     packing[21]  79
    x[19]     packing[22]  88
    x[19]     packing[23]  141
    x[19]     packing[26]  188
    x[19]     packing[27]  177
    x[19]     packing[29]  142
    x[19]     packing[30]  141
    x[19]     packing[33]  76
    x[19]     packing[34]  151
    x[19]     packing[35]  162
    x[19]     packing[36]  196
    x[19]     packing[38]  50
    x[19]     packing[40]  49
    x[19]     packing[43]  131
    x[19]     packing[44]  57
    x[19]     packing[45]  82
    x[19]     packing[46]  14
    x[19]     packing[47]  187
    x[19]     packing[48]  5
    x[19]     packing[49]  125
    x[20]     OBJ       146
    x[20]     packing[0]  174
    x[20]     packing[1]  86
    x[20]     packing[2]  109
    x[20]     packing[3]  19
    x[20]     packing[5]  20
    x[20]     packing[6]  108
    x[20]     packing[9]  44
    x[20]     packing[11]  140
    x[20]     packing[13]  81
    x[20]     packing[15]  132
    x[20]     packing[16]  75
    x[20]     packing[17]  26
    x[20]     packing[19]  40
    x[20]     packing[20]  29
    x[20]     packing[21]  155
    x[20]     packing[22]  183
    x[20]     packing[23]  45
    x[20]     packing[24]  53
    x[20]     packing[25]  119
    x[20]     packing[26]  25
    x[20]     packing[27]  90
    x[20]     packing[29]  15
    x[20]     packing[30]  19
    x[20]     packing[31]  121
    x[20]     packing[32]  63
    x[20]     packing[33]  113
    x[20]     packing[36]  147
    x[20]     packing[38]  82
    x[20]     packing[40]  33
    x[20]     packing[41]  32
    x[20]     packing[42]  63
    x[20]     packing[43]  7
    x[20]     packing[44]  103
    x[20]     packing[46]  131
    MARKER    'MARKER'                 'INTEND'
RHS
    RHS1      packing[0]  892
    RHS1      packing[1]  614
    RHS1      packing[2]  583
    RHS1      packing[3]  912
    RHS1      packing[4]  622
    RHS1      packing[5]  1010
    RHS1      packing[6]  843
    RHS1      packing[7]  476
    RHS1      packing[8]  774
    RHS1      packing[9]  634
    RHS1      packing[10]  741
    RHS1      packing[11]  894
    RHS1      packing[12]  615
    RHS1      packing[13]  914
    RHS1      packing[14]  816
    RHS1      packing[15]  842
    RHS1      packing[16]  747
    RHS1      packing[17]  798
    RHS1      packing[18]  734
    RHS1      packing[19]  628
    RHS1      packing[20]  742
    RHS1      packing[21]  1032
    RHS1      packing[22]  824
    RHS1      packing[23]  683
    RHS1      packing[24]  1001
    RHS1      packing[25]  677
    RHS1      packing[26]  858
    RHS1      packing[27]  679
    RHS1      packing[28]  470
    RHS1      packing[29]  563
    RHS1      packing[30]  711
    RHS1      packing[31]  765
    RHS1      packing[32]  703
    RHS1      packing[33]  740
    RHS1      packing[34]  728
    RHS1      packing[35]  665
    RHS1      packing[36]  881
    RHS1      packing[37]  737
    RHS1      packing[38]  819
    RHS1      packing[39]  649
    RHS1      packing[40]  546
    RHS1      packing[41]  694
    RHS1      packing[42]  753
    RHS1      packing[43]  818
    RHS1      packing[44]  767
    RHS1      packing[45]  723
    RHS1      packing[46]  813
    RHS1      packing[47]  598
    RHS1      packing[48]  902
    RHS1      packing[49]  1018
BOUNDS
 BV BND1      x[1]    
 BV BND1      x[2]    
 BV BND1      x[3]    
 BV BND1      x[4]    
 BV BND1      x[5]    
 BV BND1      x[6]    
 BV BND1      x[7]    
 BV BND1      x[8]    
 BV BND1      x[9]    
 BV BND1      x[10]   
 BV BND1      x[11]   
 BV BND1      x[12]   
 BV BND1      x[13]   
 BV BND1      x[14]   
 BV BND1      x[15]   
 BV BND1      x[16]   
 BV BND1      x[17]   
 BV BND1      x[18]   
 BV BND1      x[19]   
 BV BND1      x[20]   
ENDATA
